50 1526
984 1052 1061 1002 872 438 1125 635 639 614 1073 793 756 662 864 625 766 1089 1042 1041 439 955 296 776 981 775 1018 349 1062 935 1146 1073 1059 619 1021 758 924 1095 1061 787 428 1039 925 604 942 716 514 1120 766 930 
652 773 790 682 488 111 928 242 245 225 813 393 353 264 477 234 364 848 753 752 112 605 50 374 647 373 710 70 792 575 979 814 786 229 714 355 559 861 789 386 106 748 560 217 585 313 155 915 363 568 
